npieces = 10;	
nplayers = 10;	
duration = [3, 4, 5, 1, 4, 2, 7, 10, 4, 9];
rehearsal = [[1, 1, 1, 0, 0, 1, 1, 1, 0, 0], [0, 0, 1, 0, 1, 0, 0, 1, 1, 1], [0, 0, 1, 1, 1, 1, 1, 1, 1, 1], [0, 1, 1, 1, 1, 0, 0, 1, 0, 1], [0, 1, 1, 0, 1, 1, 0, 1, 0, 1], [1, 1, 0, 1, 1, 1, 0, 1, 1, 1], [1, 0, 1, 0, 1, 0, 0, 1, 0, 0], [1, 1, 1, 0, 1, 0, 1, 1, 1, 1], [1, 1, 0, 1, 1, 0, 1, 0, 1, 1], [1, 1, 1, 1, 0, 1, 1, 1, 1, 1]];